p edge 55 330 42
e 16 31
e 16 17
e 16 7
e 16 54
e 16 13
e 16 8
e 16 19
e 16 47
e 16 42
e 16 9
e 16 32
e 16 1
e 31 3
e 31 14
e 31 25
e 31 17
e 31 41
e 31 12
e 31 23
e 31 15
e 31 4
e 31 7
e 31 43
e 19 45
e 19 15
e 19 54
e 19 44
e 19 21
e 19 34
e 19 52
e 19 5
e 19 33
e 19 51
e 19 37
e 45 52
e 45 10
e 45 38
e 45 28
e 45 47
e 45 51
e 45 23
e 45 34
e 45 37
e 45 29
e 45 26
e 1 15
e 1 38
e 1 47
e 1 14
e 1 32
e 1 18
e 1 8
e 1 50
e 1 39
e 1 7
e 1 25
e 15 20
e 15 7
e 15 10
e 15 37
e 15 41
e 15 8
e 15 35
e 15 53
e 15 39
e 42 43
e 42 17
e 42 20
e 42 9
e 42 12
e 42 34
e 42 2
e 42 13
e 42 54
e 42 44
e 42 48
e 43 2
e 43 27
e 43 11
e 43 41
e 43 30
e 43 3
e 43 22
e 43 6
e 43 36
e 43 14
e 34 39
e 34 26
e 34 7
e 34 29
e 34 2
e 34 24
e 34 50
e 34 30
e 34 49
e 39 24
e 39 46
e 39 22
e 39 33
e 39 17
e 39 54
e 39 40
e 39 49
e 39 44
e 11 46
e 11 23
e 11 22
e 11 26
e 11 12
e 11 35
e 11 44
e 11 21
e 11 9
e 11 47
e 11 51
e 46 41
e 46 36
e 46 18
e 46 29
e 46 40
e 46 5
e 46 47
e 46 27
e 46 35
e 46 55
e 4 25
e 4 29
e 4 3
e 4 51
e 4 14
e 4 50
e 4 36
e 4 8
e 4 54
e 4 35
e 4 48
e 25 33
e 25 51
e 25 37
e 25 55
e 25 18
e 25 54
e 25 40
e 25 6
e 25 17
e 23 38
e 23 33
e 23 28
e 23 32
e 23 36
e 23 40
e 23 35
e 23 30
e 23 48
e 38 29
e 38 21
e 38 24
e 38 40
e 38 49
e 38 27
e 38 3
e 38 5
e 38 47
e 17 14
e 17 9
e 17 12
e 17 54
e 17 30
e 17 48
e 17 10
e 7 35
e 7 5
e 7 28
e 7 55
e 7 50
e 7 9
e 7 13
e 35 29
e 35 10
e 35 49
e 35 27
e 35 22
e 35 50
e 41 30
e 41 3
e 41 20
e 41 54
e 41 37
e 41 18
e 41 32
e 41 13
e 30 55
e 30 50
e 30 24
e 30 40
e 30 49
e 30 53
e 30 28
e 55 52
e 55 44
e 55 36
e 55 28
e 55 12
e 55 40
e 55 24
e 55 5
e 52 9
e 52 32
e 52 26
e 52 53
e 52 13
e 52 33
e 52 6
e 52 20
e 52 3
e 20 33
e 20 28
e 20 32
e 20 40
e 20 14
e 20 21
e 20 48
e 20 29
e 33 40
e 33 26
e 33 18
e 33 53
e 33 6
e 33 28
e 29 44
e 29 18
e 29 13
e 29 27
e 29 3
e 48 53
e 48 10
e 48 27
e 48 8
e 48 22
e 48 50
e 48 28
e 53 37
e 53 2
e 53 51
e 53 3
e 53 9
e 53 50
e 53 12
e 37 22
e 37 9
e 37 12
e 37 32
e 37 27
e 37 8
e 18 49
e 18 26
e 18 44
e 18 12
e 18 36
e 18 13
e 49 2
e 49 32
e 49 21
e 49 8
e 49 22
e 49 47
e 10 40
e 10 44
e 10 21
e 10 32
e 10 3
e 10 36
e 10 22
e 22 27
e 22 26
e 22 2
e 22 5
e 50 6
e 50 36
e 50 24
e 50 26
e 3 14
e 3 26
e 3 21
e 14 47
e 14 32
e 14 2
e 14 26
e 14 6
e 26 13
e 26 8
e 28 51
e 28 12
e 28 2
e 28 5
e 47 51
e 47 12
e 47 13
e 47 44
e 8 12
e 8 6
e 8 21
e 8 24
e 12 6
e 44 54
e 44 27
e 44 36
e 40 5
e 40 2
e 2 51
e 2 27
e 2 13
e 51 54
e 51 24
e 51 27
e 54 5
e 54 9
e 27 9
e 32 6
e 32 5
e 21 13
e 21 24
e 21 6
e 21 36
e 36 9
e 36 24
e 6 13
e 6 5
e 9 24
e 5 24
